c i-3-03-majority-03.cnf
c cnf clauses for the 3-input maj function
c
c (xWork) 213 % B.cover.f.exh  ../xBenchm/coverBinate/tiny/i-3-03-majority-03.cnf
c 
c Hasse rank order of all solutions (feasible and unfeasible) 
c .. almost ready for plotting the Hasse graph 
c .. coord;value,isFeasible,cntNotCovered
c solutionAry(0) = {000;30,0,3}
c solutionAry(1) = {100;1,1,0} {010;1,1,0} {001;1,1,0}
c solutionAry(2) = {110;12,0,1} {101;12,0,1} {011;12,0,1}
c solutionAry(3) = {111;33,0,3}
c 
c # Output from B.cover.f.exh: 
c # Exhaustive enumeration of instance ../xBenchm/coverBinate/tiny/i-3-03-majority-03.cnf 
c # .. completed on Sat Oct 18 13:48:04 EDT 2014 
c # table below can be read in R 
c rank	cntCoord	cntFeasible	probOfFeasible
c 0	1	0 	   0
c 1	3	3 	   1
c 2	3	0 	   0
c 3	1	0 	   0
c # there are 3 valueBest solutions
c # 001;1
c # 010;1
c # 100;1
c # 
c #	nDim	cntCoordLmt	runtimeCoord	runtimeProbe	hostID 
c #	3	8	0.000239	0.000256	brglez@triangle-Darwin-13.4.0
c
p cnf 3 3
-1 -2 0
-1 -3 0
-2 -3 0

